language ESSENCE' 1.0

letting jobs = 102
letting horizon = 805
letting resourcesRenew = 2
letting resourcesNonrenew = 2
letting resourceLimits = [14, 14, 377, 412]
letting successors = [[2, 3, 4, 5, 6, 7, 8, 9, 11, 12, 13, 14], [25, 23, 21, 20, 18, 10], [33, 26, 25, 19, 17, 16, 15], [27, 25, 24, 10], [36, 27, 24, 20, 16], [37, 33, 26, 19, 17], [33, 26, 22, 19, 16], [18, 17, 16], [37, 36, 32, 29, 28, 25, 24, 22], [33, 32, 22, 19, 16], [38, 36, 33, 29, 28, 26, 18], [37, 25, 24, 22, 19], [37, 32, 24, 23, 19], [38, 33, 30, 28, 26, 23, 22], [41, 38, 37, 36, 35, 31, 30, 29, 28], [41, 38, 37, 35, 31, 30, 29, 28], [39, 38, 30, 23, 22], [39, 32, 30, 22], [40, 38, 36, 35, 28], [30, 26], [44, 40, 39, 38, 35, 33, 32], [41, 40, 35, 34, 31], [40, 36, 35, 34, 31], [41, 38, 35, 33, 30], [56, 39, 38, 35, 34], [41, 39, 34, 32], [54, 49, 46, 44, 41, 40, 38], [56, 48, 45, 43, 39, 34], [54, 50, 49, 48, 45, 44, 40], [54, 48, 46, 45, 40], [56, 54, 50, 49, 48, 44, 42], [56, 54, 49, 48, 46, 45, 43], [54, 53, 52, 49, 48, 46, 45], [54, 50, 49, 44, 42], [48, 46, 45, 43, 42], [54, 50, 48, 45, 44], [57, 50, 49, 48, 43], [57, 52, 50, 48, 45], [57, 53, 49, 42], [56, 53, 42], [52, 45], [66, 62, 61, 52, 47], [66, 62, 61, 52, 47], [62, 59, 58, 57, 53, 52, 51], [66, 62, 61, 47], [66, 64, 63, 59, 58, 57, 50], [60, 59, 58, 55, 51], [81, 73, 66, 64, 62, 59], [81, 77, 75, 74, 73, 68, 67, 65, 64, 63], [81, 76, 75, 74, 71, 70, 68, 62, 60], [81, 77, 76, 75, 73, 69, 68, 67, 64, 63], [81, 75, 70, 68, 65, 60], [87, 81, 80, 72, 70, 69, 68, 66, 65], [81, 80, 73, 70, 68, 66, 65, 63], [87, 75, 74, 72, 65, 64], [85, 80, 79, 76, 75, 74, 73, 72, 71, 70, 69], [92, 87, 81, 75, 73, 72, 65], [81, 77, 76, 71, 69, 67], [87, 85, 79, 77, 74, 71, 69, 68], [87, 80, 78, 77, 73, 67], [92, 80, 75, 65], [92, 87, 85, 72, 69], [100, 92, 90, 87, 85, 83, 82, 79, 78], [88, 85, 83, 82, 80, 78, 70], [85, 79, 76, 71], [101, 92, 91, 88, 77, 76, 75], [92, 79, 72], [101, 100, 90, 88, 86, 82, 78], [101, 90, 88, 84, 83, 78], [101, 100, 99, 97, 96, 92, 91, 90, 86, 84], [101, 100, 88, 82, 78], [100, 99, 96, 91, 90, 86, 82], [101, 100, 99, 97, 90, 89, 88, 83], [101, 100, 99, 96, 90, 82], [100, 99, 98, 97, 96, 90, 86, 84], [99, 97, 90, 84, 83], [100, 96, 82], [99, 98, 97, 96, 94, 91, 89], [101, 99, 96, 91, 88, 86], [98, 97, 96, 91, 84], [98, 97, 95, 90, 85], [98, 97, 84], [96, 86], [95, 94, 89], [96, 94, 89], [95, 94, 93], [96, 94, 93], [95, 93], [93], [94], [95], [98], [102], [102], [102], [102], [102], [102], [102], [102], [102], []]
letting durations = [[0], [2, 8, 10], [1, 5, 6], [2, 5, 6], [6, 6, 10], [6, 7, 8], [2, 4, 7], [1, 6, 7], [3, 7, 8], [3, 8, 9], [1, 1, 10], [1, 3, 9], [4, 7, 8], [3, 4, 6], [2, 5, 10], [4, 7, 8], [5, 7, 9], [3, 5, 8], [4, 6, 10], [1, 2, 3], [4, 5, 6], [1, 3, 4], [3, 8, 10], [1, 6, 7], [2, 3, 5], [3, 5, 8], [3, 4, 4], [1, 2, 8], [2, 3, 10], [2, 5, 9], [1, 8, 9], [4, 5, 10], [2, 5, 7], [5, 5, 6], [1, 8, 9], [4, 6, 9], [6, 9, 10], [1, 3, 6], [6, 7, 9], [2, 4, 7], [8, 9, 10], [4, 6, 10], [5, 6, 10], [1, 7, 8], [3, 4, 8], [3, 6, 9], [5, 6, 9], [6, 8, 10], [2, 3, 6], [4, 8, 10], [6, 8, 9], [1, 3, 5], [1, 5, 6], [2, 8, 8], [2, 8, 9], [7, 8, 9], [5, 6, 10], [2, 8, 10], [4, 8, 8], [6, 7, 10], [1, 3, 5], [2, 2, 5], [1, 7, 8], [1, 7, 9], [1, 5, 8], [5, 7, 10], [1, 4, 7], [5, 7, 8], [8, 9, 9], [1, 9, 10], [2, 7, 8], [1, 5, 10], [6, 7, 8], [7, 9, 10], [7, 9, 10], [5, 6, 8], [7, 9, 10], [3, 6, 7], [1, 4, 9], [4, 9, 10], [1, 2, 4], [3, 4, 5], [2, 2, 3], [1, 2, 10], [1, 2, 5], [1, 2, 10], [3, 7, 9], [4, 4, 5], [1, 4, 5], [2, 5, 8], [2, 4, 8], [1, 2, 9], [6, 7, 10], [4, 8, 10], [2, 3, 6], [7, 8, 10], [1, 6, 7], [2, 3, 6], [4, 9, 9], [1, 7, 9], [3, 4, 9], [0]]
letting resourceUsage = [[[0, 0, 0, 0]], [[4, 5, 8, 0], [4, 5, 7, 0], [4, 5, 6, 0]], [[4, 4, 0, 7], [4, 3, 6, 0], [4, 1, 5, 0]], [[1, 4, 0, 7], [1, 4, 4, 0], [1, 3, 0, 6]], [[4, 4, 0, 2], [4, 3, 4, 0], [4, 3, 2, 0]], [[4, 5, 1, 0], [3, 4, 1, 0], [2, 4, 1, 0]], [[2, 2, 10, 0], [2, 2, 0, 6], [2, 2, 5, 0]], [[3, 3, 7, 0], [2, 2, 6, 0], [2, 1, 6, 0]], [[4, 2, 0, 9], [3, 2, 0, 5], [3, 2, 0, 3]], [[3, 2, 7, 0], [3, 2, 6, 0], [3, 2, 5, 0]], [[4, 3, 10, 0], [3, 2, 0, 8], [3, 2, 0, 7]], [[4, 4, 0, 10], [4, 4, 0, 8], [4, 4, 0, 7]], [[3, 5, 10, 0], [3, 4, 0, 6], [2, 4, 9, 0]], [[3, 2, 6, 0], [3, 2, 5, 0], [1, 2, 5, 0]], [[3, 5, 8, 0], [2, 4, 0, 3], [2, 4, 0, 1]], [[2, 1, 2, 0], [2, 1, 0, 5], [2, 1, 0, 4]], [[2, 5, 0, 10], [1, 4, 1, 0], [1, 3, 0, 9]], [[3, 4, 4, 0], [3, 4, 3, 0], [2, 4, 4, 0]], [[3, 5, 6, 0], [3, 4, 0, 6], [3, 4, 0, 5]], [[1, 3, 0, 9], [1, 2, 0, 7], [1, 2, 0, 5]], [[4, 5, 0, 5], [2, 4, 0, 3], [2, 4, 4, 0]], [[4, 5, 9, 0], [4, 4, 0, 1], [4, 3, 0, 1]], [[3, 3, 0, 10], [2, 2, 4, 0], [1, 2, 0, 2]], [[3, 4, 0, 7], [3, 4, 0, 6], [3, 4, 0, 4]], [[4, 3, 7, 0], [2, 2, 7, 0], [1, 2, 5, 0]], [[3, 2, 0, 7], [2, 2, 0, 6], [2, 2, 4, 0]], [[3, 3, 0, 6], [3, 1, 0, 4], [3, 1, 5, 0]], [[1, 2, 0, 6], [1, 1, 0, 6], [1, 1, 3, 0]], [[3, 4, 4, 0], [2, 4, 3, 0], [1, 2, 3, 0]], [[4, 4, 0, 7], [2, 2, 4, 0], [2, 2, 3, 0]], [[4, 1, 0, 7], [3, 1, 0, 5], [1, 1, 1, 0]], [[4, 3, 0, 6], [4, 3, 0, 5], [3, 3, 5, 0]], [[3, 1, 0, 9], [2, 1, 4, 0], [1, 1, 0, 7]], [[4, 3, 7, 0], [2, 2, 0, 6], [2, 2, 7, 0]], [[5, 5, 4, 0], [3, 2, 0, 5], [2, 2, 1, 0]], [[5, 3, 0, 8], [5, 2, 0, 8], [5, 1, 0, 8]], [[3, 4, 0, 5], [3, 4, 2, 0], [3, 3, 0, 5]], [[1, 5, 0, 7], [1, 4, 0, 7], [1, 3, 0, 7]], [[3, 3, 0, 10], [2, 3, 7, 0], [2, 3, 0, 10]], [[3, 4, 8, 0], [2, 4, 0, 6], [2, 4, 6, 0]], [[3, 3, 8, 0], [3, 3, 3, 0], [3, 1, 0, 5]], [[3, 4, 9, 0], [1, 4, 0, 4], [1, 4, 7, 0]], [[3, 5, 8, 0], [3, 3, 0, 5], [3, 3, 0, 2]], [[5, 3, 0, 7], [3, 3, 6, 0], [3, 2, 4, 0]], [[3, 5, 0, 8], [3, 4, 0, 7], [3, 3, 2, 0]], [[2, 3, 0, 2], [2, 3, 9, 0], [2, 2, 0, 1]], [[5, 5, 8, 0], [3, 4, 7, 0], [2, 3, 0, 5]], [[4, 2, 0, 5], [3, 2, 3, 0], [3, 1, 3, 0]], [[5, 5, 10, 0], [3, 4, 0, 9], [2, 4, 0, 9]], [[1, 4, 0, 8], [1, 4, 0, 7], [1, 3, 0, 5]], [[1, 5, 0, 9], [1, 3, 4, 0], [1, 3, 0, 8]], [[4, 5, 8, 0], [3, 5, 0, 5], [2, 5, 8, 0]], [[3, 2, 9, 0], [2, 1, 0, 6], [2, 1, 4, 0]], [[1, 4, 0, 6], [1, 2, 9, 0], [1, 2, 0, 3]], [[3, 4, 0, 3], [3, 4, 6, 0], [3, 4, 0, 2]], [[2, 3, 0, 7], [2, 3, 6, 0], [2, 1, 2, 0]], [[4, 4, 0, 8], [4, 4, 0, 5], [3, 4, 1, 0]], [[1, 5, 0, 9], [1, 3, 0, 6], [1, 1, 6, 0]], [[5, 3, 0, 5], [4, 2, 0, 3], [3, 1, 2, 0]], [[5, 5, 3, 0], [4, 5, 3, 0], [4, 5, 1, 0]], [[3, 4, 0, 6], [2, 2, 4, 0], [2, 1, 0, 4]], [[1, 2, 0, 8], [1, 2, 6, 0], [1, 2, 3, 0]], [[3, 3, 7, 0], [2, 2, 7, 0], [2, 2, 0, 6]], [[2, 5, 0, 8], [1, 3, 6, 0], [1, 2, 5, 0]], [[2, 5, 4, 0], [1, 4, 4, 0], [1, 3, 0, 1]], [[3, 1, 8, 0], [2, 1, 0, 3], [1, 1, 7, 0]], [[1, 3, 5, 0], [1, 2, 3, 0], [1, 2, 0, 5]], [[2, 1, 6, 0], [1, 1, 5, 0], [1, 1, 4, 0]], [[5, 4, 0, 8], [4, 2, 0, 8], [3, 2, 2, 0]], [[3, 2, 8, 0], [3, 1, 0, 5], [3, 1, 0, 4]], [[2, 3, 5, 0], [2, 3, 4, 0], [1, 3, 0, 5]], [[2, 3, 7, 0], [2, 2, 5, 0], [2, 2, 1, 0]], [[4, 5, 0, 2], [2, 3, 0, 1], [2, 3, 1, 0]], [[2, 5, 10, 0], [2, 4, 0, 7], [2, 2, 0, 6]], [[3, 3, 0, 9], [2, 2, 0, 8], [2, 2, 4, 0]], [[4, 3, 4, 0], [2, 3, 0, 4], [2, 3, 1, 0]], [[3, 3, 0, 6], [2, 2, 5, 0], [2, 1, 0, 3]], [[4, 4, 0, 6], [3, 4, 0, 5], [3, 2, 0, 5]], [[3, 4, 0, 8], [1, 3, 0, 7], [1, 3, 0, 5]], [[4, 4, 0, 9], [2, 4, 3, 0], [2, 4, 0, 5]], [[2, 3, 0, 8], [2, 2, 8, 0], [1, 2, 0, 5]], [[2, 3, 7, 0], [2, 3, 0, 3], [2, 3, 0, 2]], [[4, 5, 0, 8], [3, 3, 2, 0], [3, 3, 0, 3]], [[3, 2, 10, 0], [3, 2, 6, 0], [3, 2, 5, 0]], [[2, 3, 7, 0], [1, 3, 6, 0], [1, 3, 5, 0]], [[1, 1, 0, 7], [1, 1, 5, 0], [1, 1, 0, 3]], [[4, 2, 3, 0], [4, 1, 0, 6], [4, 1, 0, 2]], [[3, 3, 5, 0], [2, 3, 0, 8], [1, 3, 0, 6]], [[3, 3, 0, 6], [3, 3, 4, 0], [2, 3, 3, 0]], [[3, 5, 3, 0], [3, 3, 0, 8], [3, 3, 0, 7]], [[4, 4, 9, 0], [4, 2, 9, 0], [4, 2, 8, 0]], [[3, 1, 7, 0], [3, 1, 5, 0], [3, 1, 0, 2]], [[5, 2, 0, 4], [4, 1, 0, 4], [4, 1, 0, 3]], [[5, 4, 0, 4], [4, 3, 0, 4], [3, 3, 0, 3]], [[5, 2, 0, 10], [2, 2, 7, 0], [2, 1, 0, 4]], [[1, 4, 6, 0], [1, 4, 5, 0], [1, 3, 3, 0]], [[4, 5, 4, 0], [3, 4, 0, 9], [2, 3, 3, 0]], [[1, 3, 0, 5], [1, 3, 0, 4], [1, 3, 0, 3]], [[2, 4, 0, 8], [1, 4, 0, 8], [1, 3, 3, 0]], [[3, 4, 0, 2], [3, 2, 3, 0], [2, 1, 3, 0]], [[2, 2, 1, 0], [1, 2, 0, 4], [1, 2, 0, 3]], [[0, 0, 0, 0]]]
